20	13000	3000	1200
4639	786	606
3232	577	746
3380	638	610
2631	540	549
3001	537	685
2067	834	568
3650	645	734
2987	627	563
4857	531	727
4138	724	669
3831	516	678
4516	683	562
2884	727	713
2439	806	771
4173	865	650
4860	787	609
2561	881	553
4564	515	685
2475	815	749
2162	713	628
